pp_path=~/install/input_files/data/
bf_path=~/install/input_files/data/Ng_6/
gs_path=../gs/

run_type=24
continuation=true
tddft_type=2
td_data_output_frequency=10
orb_en_comp_output_frequency=10 
time_step=0.001d0
N_time_steps=1000000
#################################################
ramp_time=0.1

move_atoms=true
move_all_atoms=true
atomic_movement_frequency=1
moldyn_output_level=5
moldyn_output_frequency=20
save_trajectory=true

###################################################
trajectory_output_frequency=100

output_full_td_density=true
td_density_output_frequency=500
td_density_output_format=bov

large_file_format=binary

output_mr_density_slice=false
output_mr_orbital_charge=false
output_plot_time=false

write_restart_frequency_taylor=1000

input_initial_velocity=true

calc_force_gs_psi=true
calc_force_gs_psi_frequency=100
ediff=1.d-3
resolve_gs_min_iter=20
n_scf_iter_max=100

mixer_type=0
mixer_beta=0.10

#man_set_N_orbitals_num=54

md_give_inf_mass_specific=true
md_inf_mass_numberofatoms=12
md_inf_mass_string=25,26,27,28,29,30,31,32,33,34,35,36


#Laser amplitude in in V/A
e_laser3=-0.2
laser_wavelength3=1.d8
laser_envelope_type3=gaussian
laser_pulse_width3=1.d6
laser_pulse_shift3=0.0
laser_phase3=1.570796

#Static external field
e_ext=0.d0

#cap_left1=-6.5
#cap_right1=6.5
#cap_left2=-6.5
#cap_right2=6.5
#cap_left3=-6.0
cap_right3=5.0
cap_parameter=0.4
save_cap=true

