 # Number of atoms:    72
 # Number of domains in the system:     1
 # Grid step:     0.2500000000
 # Number of grid points in x,y,z directions:    89    89    53
 # Simulation box bounds:
 # x    -11.00000000000000 :    11.00000000000000
 # y    -11.00000000000000 :    11.00000000000000
 # z     -6.50000000000000 :     6.50000000000000
 # Distance along axes from leftmost/rightmost atoms to simulation box bounds:
 # x      4.17013200000000 :     4.17013200000000
 # y      3.86535450000000 :     3.86535450000000
 # z      5.49922900000000 :     7.49902500000000
 # System length (from leftmost to rightmost atom in each direction):
 # x,y,z      13.65973600000000    14.26929100000000     0.00174600000000
          72             0             0             0
    -2.90281300000000    -2.41619150000000    -0.99979500000000     6     1
    -3.59793900000000    -1.14865550000000    -0.99975900000000     6     1
    -2.86335500000000     0.06301550000000    -0.99990400000000     6     1
    -3.54391900000000     1.30581150000000    -0.99992100000000     6     1
    -2.79374300000000     2.54155850000000    -1.00017500000000     6     1
    -1.37716000000000     2.51124750000000    -1.00025900000000     6     1
    -0.64114500000000     3.72208650000000    -1.00022200000000     6     1
     0.80416400000000     3.69025450000000    -1.00036200000000     6     1
     1.48623100000000     2.44825750000000    -1.00024200000000     6     1
     2.90277100000000     2.41624650000000    -0.99995800000000     6     1
     3.59788200000000     1.14869950000000    -0.99991200000000     6     1
     2.86334200000000    -0.06294750000000    -1.00010600000000     6     1
     3.54386900000000    -1.30577650000000    -1.00008200000000     6     1
     2.79371000000000    -2.54151050000000    -1.00021300000000     6     1
     1.37710200000000    -2.51120750000000    -1.00016400000000     6     1
     0.64108900000000    -3.72196350000000    -1.00019700000000     6     1
    -0.80418000000000    -3.69016650000000    -1.00002000000000     6     1
    -1.48623900000000    -2.44821050000000    -0.99996100000000     6     1
    -0.73515200000000    -1.21097350000000    -1.00006400000000     6     1
     0.68115300000000    -1.24213350000000    -1.00016100000000     6     1
     1.41631900000000    -0.03111950000000    -1.00023000000000     6     1
     0.73513900000000     1.21101650000000    -1.00028800000000     6     1
    -0.68120100000000     1.24218250000000    -1.00024700000000     6     1
    -1.41635100000000     0.03119450000000    -1.00007200000000     6     1
    -3.47323000000000     3.79246750000000    -1.00027700000000     6     1
    -1.33053000000000     4.96735850000000    -1.00006500000000     6     1
    -2.73391700000000     4.98532450000000    -1.00019600000000     6     1
    -3.25785600000000     5.94086350000000    -1.00050600000000     1     1
     1.54770600000000     4.90407050000000    -1.00019800000000     6     1
    -0.54210300000000     6.18852650000000    -0.99999100000000     6     1
     0.81361900000000     6.15880450000000    -1.00028900000000     6     1
    -1.08405900000000     7.13464550000000    -0.99986900000000     1     1
     1.39663600000000     7.08014750000000    -1.00077100000000     1     1
     2.95049800000000     4.86028750000000    -0.99971700000000     6     1
     3.63661500000000     3.63604250000000    -0.99964500000000     6     1
     3.51593400000000     5.79186650000000    -0.99942000000000     1     1
     5.08839600000000     3.56370750000000    -0.99928900000000     6     1
     5.02091700000000     1.11169850000000    -0.99963200000000     6     1
     5.74042200000000     2.37471050000000    -0.99931100000000     6     1
     6.82986800000000     2.33052850000000    -0.99908500000000     1     1
     5.63683400000000     4.50607550000000    -0.99902500000000     1     1
     4.96715300000000    -1.33139450000000    -0.99986800000000     6     1
     5.68433400000000    -0.12501050000000    -0.99963900000000     6     1
     6.77383000000000    -0.14902050000000    -0.99946100000000     1     1
     5.63043600000000    -2.62479050000000    -0.99996800000000     6     1
     3.47323200000000    -3.79236150000000    -1.00032100000000     6     1
     4.92671900000000    -3.78394850000000    -1.00025200000000     6     1
     5.43323700000000    -4.74951150000000    -1.00044000000000     1     1
     6.72076400000000    -2.62856350000000    -0.99977400000000     1     1
     2.73383000000000    -4.98525250000000    -1.00052300000000     6     1
     1.33052400000000    -4.96739550000000    -1.00034600000000     6     1
     3.25787300000000    -5.94078050000000    -1.00053300000000     1     1
    -1.54773300000000    -4.90405250000000    -0.99990300000000     6     1
    -0.81369400000000    -6.15865550000000    -1.00009200000000     6     1
     0.54202200000000    -6.18849050000000    -1.00036700000000     6     1
     1.08389700000000    -7.13464550000000    -1.00063900000000     1     1
    -1.39665900000000    -7.08006550000000    -1.00001500000000     1     1
    -2.95047000000000    -4.86023450000000    -0.99967300000000     6     1
    -3.63663800000000    -3.63595050000000    -0.99965800000000     6     1
    -3.51599200000000    -5.79176850000000    -0.99946500000000     1     1
    -5.02092400000000    -1.11167750000000    -0.99962200000000     6     1
    -5.74042900000000    -2.37465750000000    -0.99949100000000     6     1
    -5.08838500000000    -3.56365550000000    -0.99952400000000     6     1
    -5.63684400000000    -4.50600750000000    -0.99945300000000     1     1
    -6.82986800000000    -2.33051850000000    -0.99936800000000     1     1
    -4.96723500000000     1.33141350000000    -0.99988800000000     6     1
    -5.68438800000000     0.12508550000000    -0.99965400000000     6     1
    -6.77388100000000     0.14899650000000    -0.99945500000000     1     1
    -4.92679600000000     3.78404450000000    -1.00039500000000     6     1
    -5.63048500000000     2.62487250000000    -1.00017800000000     6     1
    -6.72081300000000     2.62861850000000    -1.00024700000000     1     1
    -5.43328800000000     4.74961250000000    -1.00074800000000     1     1
     0.2500000000     89     89     53

