#GROUND STATE CONTROL

# change paths to match input files on wherever you do the calculations EX ACES SDSC etc.
pp_path=/shared/varga_prog/book/mask_volkov_3d/input_files
bf_path=/shared/varga_prog/book/mask_volkov_3d/input_files/Ng_6

run_type=14
continuation=false


mixer_type=0
mixer_beta=0.15
check_convergence=true
ediff=1.d-6
N_scf_iter_max=200
gs_data_output_frequency=100

large_file_format=binary

# print out some more info on density and lattice map
run_type=78

read_isotope_mass=true
