          38             0             0             0
     2.44304650000000    -2.78811019000000    -0.00002285201660     6     1
     1.27438867000000    -3.47266926000000     0.00000749744162     6     1
     0.03411748480000    -2.82058813000000     0.00003694296990     6     1
    -1.18603576000000    -3.51224799000000     0.00000969809780     6     1
    -2.37037172000000    -2.84317399000000     0.00000533056395     6     1
    -2.41982019000000    -1.43462600000000    -0.00001355961010     6     1
    -3.62994859000000    -0.71981937500000    -0.00002804546840     6     1
    -3.64404372000000     0.63281909300000     0.00000448380119     6     1
    -2.45374420000000     1.37867420000000     0.00004395704150     6     1
    -2.44299573000000     2.78814034000000     0.00002074462350     6     1
    -1.27433412000000     3.47269411000000    -0.00000915285141     6     1
    -0.03404164700000     2.82062041000000    -0.00003921989400     6     1
     1.18613905000000     3.51224845000000    -0.00001218154380     6     1
     2.37046689000000     2.84317251000000    -0.00000615634278     6     1
     2.41989982000000     1.43461563000000     0.00001507108470     6     1
     3.63002017000000     0.71978648300000     0.00002680896070     6     1
     3.64410438000000    -0.63283690500000    -0.00000554316720     6     1
     2.45378480000000    -1.37865515000000    -0.00004460985670     6     1
     1.22683020000000    -0.68826603500000    -0.00002453944790     6     1
     1.20978917000000     0.71373937000000    -0.00001439602510     6     1
    -0.01591231070000     1.40215708000000    -0.00000916804947     6     1
    -1.22676890000000     0.68829622600000     0.00002509970860     6     1
    -1.20971232000000    -0.71369838800000     0.00001592064670     6     1
     0.01597770380000    -1.40212128000000     0.00000810051329     6     1
     3.39171422000000    -3.32762441000000    -0.00000969490854     1     1
     1.29063808000000    -4.56593878000000     0.00000529067582     1     1
    -1.17472492000000    -4.59823735000000    -0.00000716550658     1     1
    -3.30766126000000    -3.39936971000000    -0.00000000195358     1     1
    -4.56566575000000    -1.27825209000000    -0.00001462069340     1     1
    -4.59287972000000     1.16943579000000     0.00000146141037     1     1
    -3.39164905000000     3.32768046000000     0.00000812366240     1     1
    -1.29061133000000     4.56595585000000    -0.00000546538359     1     1
     1.17486867000000     4.59823843000000     0.00000523970661     1     1
     3.30775592000000     3.39936769000000    -0.00000072054265     1     1
     4.56575130000000     1.27819080000000     0.00001287624080     1     1
     4.59290540000000    -1.16951607000000    -0.00000236629797     1     1
0.0 0.0 6.0 1 1 
3.0 3.0 6.0 1 1
     0.2500000000     81     81     81
